Maximize
  - 15 x0 + 46 x1 - 42 x2 - 16 x3 - 33 x4 + 34 x5 + 39 x6 + 10 x7 + 0 x8
   - 48 x9 - 46 x10 - 34 x11 - 15 x12 - 31 x13 - 5 x14 - 31 x15 + 49 x16
   - 9 x17 - 6 x18 - 31 x19 + 18 x20 + 4 x21 + 19 x22 - 9 x23 + 30 x24
   + 8 x25 - 40 x26 + 46 x27 - 7 x28 + 23 x29 + [ 34 x0 ^2 + 90 x0 * x1
   - 8 x0 * x2 - 12 x0 * x3 - 28 x0 * x4 + 96 x0 * x5 + 26 x0 * x6
   - 52 x0 * x7 - 32 x0 * x8 + 50 x0 * x9 - 82 x0 * x10 - 50 x0 * x11
   - 12 x0 * x12 - 30 x0 * x13 - 22 x0 * x14 - 40 x0 * x15 + 52 x0 * x16
   - 58 x0 * x17 - 48 x0 * x18 - 30 x0 * x19 - 8 x0 * x20 + 24 x0 * x21
   + 80 x0 * x22 + 70 x0 * x23 + 78 x0 * x24 + 32 x0 * x25 - 2 x0 * x26
   + 76 x0 * x27 - 54 x0 * x28 - 8 x0 * x29 + 34 x1 ^2 - 84 x1 * x2
   - 14 x1 * x4 + 40 x1 * x5 + 44 x1 * x6 - 14 x1 * x7 - 80 x1 * x8
   + 30 x1 * x9 + 40 x1 * x10 + 88 x1 * x11 - 64 x1 * x12 - 8 x1 * x13
   - 78 x1 * x14 + 32 x1 * x15 - 12 x1 * x16 + 24 x1 * x17 - 66 x1 * x18
   + 54 x1 * x19 + 68 x1 * x20 + 28 x1 * x21 + 78 x1 * x22 + 28 x1 * x23
   - 30 x1 * x24 + 64 x1 * x25 + 72 x1 * x26 - 62 x1 * x27 + 52 x1 * x28
   + 54 x1 * x29 - 28 x2 ^2 + 24 x2 * x3 - 18 x2 * x4 + 82 x2 * x5
   - 56 x2 * x6 + 72 x2 * x7 - 10 x2 * x8 + 14 x2 * x9 + 54 x2 * x10
   - 86 x2 * x11 + 32 x2 * x12 - 98 x2 * x13 - 96 x2 * x14 + 70 x2 * x15
   + 30 x2 * x16 - 84 x2 * x18 + 44 x2 * x19 - 60 x2 * x20 - 46 x2 * x21
   + 86 x2 * x22 - 92 x2 * x23 + 12 x2 * x24 - 6 x2 * x25 - 18 x2 * x26
   - 86 x2 * x27 + 60 x2 * x28 - 74 x2 * x29 + 16 x3 ^2 + 58 x3 * x4
   - 94 x3 * x5 + 14 x3 * x6 + 58 x3 * x7 + 78 x3 * x8 + 68 x3 * x9
   + 60 x3 * x10 + 32 x3 * x11 - 14 x3 * x12 + 42 x3 * x13 - 46 x3 * x14
   + 24 x3 * x16 - 64 x3 * x17 + 10 x3 * x18 + 34 x3 * x19 - 90 x3 * x20
   - 84 x3 * x21 - 28 x3 * x22 - 54 x3 * x23 + 96 x3 * x24 + 34 x3 * x25
   + 58 x3 * x26 - 8 x3 * x27 + 16 x3 * x28 + 4 x3 * x29 - 17 x4 ^2
   + 10 x4 * x5 + 82 x4 * x6 - 94 x4 * x7 + 6 x4 * x8 - 28 x4 * x9
   + 60 x4 * x10 - 14 x4 * x11 - 58 x4 * x12 - 48 x4 * x13 + 62 x4 * x14
   + 22 x4 * x15 + 58 x4 * x16 + 78 x4 * x17 - 46 x4 * x18 + 48 x4 * x19
   + 20 x4 * x20 - 88 x4 * x21 + 94 x4 * x22 - 24 x4 * x23 + 18 x4 * x24
   + 22 x4 * x25 - 58 x4 * x26 - 30 x4 * x27 + 38 x4 * x28 + 86 x4 * x29
   + 33 x5 ^2 - 44 x5 * x6 + 24 x5 * x7 + 12 x5 * x8 + 36 x5 * x9
   - 4 x5 * x10 - 64 x5 * x11 - 70 x5 * x12 - 88 x5 * x13 - 12 x5 * x14
   + 68 x5 * x15 - 82 x5 * x16 - 24 x5 * x17 - 98 x5 * x18 - 4 x5 * x19
   + 4 x5 * x20 + 44 x5 * x21 + 98 x5 * x22 + 28 x5 * x23 - 40 x5 * x24
   - 28 x5 * x25 + 70 x5 * x26 - 64 x5 * x27 + 44 x5 * x28 - 28 x5 * x29
   - 12 x6 ^2 + 50 x6 * x7 + 10 x6 * x8 + 76 x6 * x9 + 38 x6 * x10
   + 88 x6 * x11 - 78 x6 * x12 + 20 x6 * x13 - 34 x6 * x14 - 28 x6 * x15
   - 6 x6 * x16 - 46 x6 * x17 + 34 x6 * x18 + 34 x6 * x19 - 4 x6 * x20
   + 90 x6 * x21 + 30 x6 * x22 + 6 x6 * x23 + 40 x6 * x24 - 96 x6 * x25
   + 70 x6 * x26 - 46 x6 * x27 + 58 x6 * x28 - 28 x6 * x29 - 14 x7 ^2
   + 40 x7 * x8 + 14 x7 * x9 - 38 x7 * x10 - 12 x7 * x11 - 82 x7 * x12
   + 50 x7 * x13 - 42 x7 * x14 + 20 x7 * x15 - 6 x7 * x16 + 98 x7 * x17
   + 36 x7 * x18 - 52 x7 * x19 + 14 x7 * x20 + 96 x7 * x21 + 54 x7 * x22
   + 12 x7 * x23 + 92 x7 * x24 + 86 x7 * x25 + 10 x7 * x26 - 84 x7 * x27
   - 86 x7 * x28 + 30 x7 * x29 - 7 x8 ^2 + 72 x8 * x9 + 20 x8 * x10
   - 62 x8 * x11 + 22 x8 * x12 + 60 x8 * x13 - 92 x8 * x14 - 60 x8 * x15
   - 40 x8 * x16 + 30 x8 * x17 + 44 x8 * x18 + 54 x8 * x19 + 80 x8 * x20
   - 16 x8 * x21 + 62 x8 * x22 + 62 x8 * x23 + 60 x8 * x24 + 68 x8 * x25
   + 10 x8 * x26 + 80 x8 * x27 - 26 x8 * x28 - 84 x8 * x29 - 44 x9 ^2
   - 6 x9 * x10 + 28 x9 * x11 - 94 x9 * x12 + 52 x9 * x13 - 58 x9 * x14
   - 44 x9 * x15 + 54 x9 * x16 + 12 x9 * x17 + 58 x9 * x18 - 88 x9 * x20
   - 40 x9 * x21 + 66 x9 * x22 + 64 x9 * x23 + 58 x9 * x24 + 56 x9 * x25
   - 16 x9 * x26 - 2 x9 * x27 - 48 x9 * x28 - 26 x9 * x29 - 47 x10 ^2
   + 26 x10 * x11 - 34 x10 * x12 + 28 x10 * x13 - 70 x10 * x14
   + 92 x10 * x15 - 14 x10 * x16 + 18 x10 * x17 + 94 x10 * x18
   - 66 x10 * x19 + 78 x10 * x20 + 68 x10 * x21 - 86 x10 * x22
   - 22 x10 * x23 - 60 x10 * x24 + 88 x10 * x25 - 88 x10 * x26
   + 70 x10 * x27 - 32 x10 * x28 + 76 x10 * x29 + 37 x11 ^2 - 96 x11 * x12
   + 6 x11 * x13 - 20 x11 * x14 + 86 x11 * x15 + 58 x11 * x16
   + 64 x11 * x17 - 80 x11 * x19 - 22 x11 * x20 - 68 x11 * x21
   - 26 x11 * x22 - 92 x11 * x23 + 2 x11 * x24 + 6 x11 * x25 - 52 x11 * x26
   - 4 x11 * x27 - 70 x11 * x28 - 62 x11 * x29 + 16 x12 ^2 - 36 x12 * x13
   - 66 x12 * x14 + 82 x12 * x15 - 88 x12 * x16 + 96 x12 * x17
   + 18 x12 * x18 + 26 x12 * x19 - 56 x12 * x20 - 86 x12 * x21
   - 56 x12 * x22 + 26 x12 * x23 - 18 x12 * x24 + 62 x12 * x25
   + 84 x12 * x27 + 16 x12 * x28 - 72 x12 * x29 + 11 x13 ^2 - 74 x13 * x14
   - 92 x13 * x15 + 90 x13 * x16 + 80 x13 * x17 - 38 x13 * x18
   - 52 x13 * x19 - 86 x13 * x20 - 98 x13 * x21 + 20 x13 * x22
   - 82 x13 * x23 + 22 x13 * x24 + 34 x13 * x25 - 66 x13 * x26
   - 98 x13 * x27 - 80 x13 * x28 - 92 x13 * x29 + 6 x14 ^2 - 50 x14 * x15
   + 22 x14 * x16 - 50 x14 * x17 - 80 x14 * x18 + 22 x14 * x19
   - 20 x14 * x20 + 74 x14 * x21 - 96 x14 * x22 + 60 x14 * x23
   + 82 x14 * x24 + 4 x14 * x25 + 16 x14 * x26 - 66 x14 * x27
   - 98 x14 * x28 + 46 x14 * x29 + 29 x15 ^2 + 78 x15 * x16 - 40 x15 * x17
   + 42 x15 * x18 - 16 x15 * x19 + 58 x15 * x20 - 38 x15 * x21
   - 58 x15 * x22 + 60 x15 * x23 - 10 x15 * x24 - 22 x15 * x25
   - 66 x15 * x26 + 52 x15 * x27 - 78 x15 * x28 + 98 x15 * x29 - 22 x16 ^2
   + 88 x16 * x17 + 50 x16 * x18 + 34 x16 * x19 - 52 x16 * x20
   + 74 x16 * x21 + 98 x16 * x22 - 44 x16 * x23 - 86 x16 * x24
   + 14 x16 * x25 - 2 x16 * x26 - 44 x16 * x27 - 36 x16 * x28
   + 30 x16 * x29 - 40 x17 ^2 - 18 x17 * x18 - 38 x17 * x19 - 54 x17 * x20
   + 88 x17 * x21 - 72 x17 * x22 + 4 x17 * x23 - 54 x17 * x24
   - 42 x17 * x25 - 90 x17 * x26 - 30 x17 * x27 - 76 x17 * x28
   + 70 x17 * x29 + 19 x18 ^2 + 96 x18 * x19 - 58 x18 * x20 - 36 x18 * x21
   - 64 x18 * x22 - 46 x18 * x23 + 98 x18 * x24 + 76 x18 * x25
   - 86 x18 * x26 + 86 x18 * x27 + 30 x18 * x28 - 34 x18 * x29 - 46 x19 ^2
   + 80 x19 * x20 - 84 x19 * x21 - 80 x19 * x22 - 20 x19 * x23
   + 72 x19 * x24 + 62 x19 * x25 + 84 x19 * x26 - 10 x19 * x27
   + 66 x19 * x28 - 62 x19 * x29 - 43 x20 ^2 - 18 x20 * x21 + 90 x20 * x22
   + 10 x20 * x23 - 84 x20 * x24 + 6 x20 * x25 - 78 x20 * x26
   - 64 x20 * x27 - 8 x20 * x28 - 36 x20 * x29 - 12 x21 ^2 - 14 x21 * x22
   + 56 x21 * x23 - 82 x21 * x24 - 82 x21 * x25 + 32 x21 * x26
   + 44 x21 * x28 + 66 x21 * x29 - 6 x22 ^2 + 96 x22 * x23 + 94 x22 * x24
   + 42 x22 * x25 + 12 x22 * x26 - 80 x22 * x27 - 64 x22 * x28
   + 62 x22 * x29 - 6 x23 ^2 - 42 x23 * x24 + 68 x23 * x25 + 68 x23 * x26
   - 28 x23 * x27 - 52 x23 * x28 + 28 x23 * x29 + 40 x24 ^2 - 76 x24 * x25
   - 66 x24 * x26 + 36 x24 * x27 - 6 x24 * x28 - 10 x24 * x29 + 23 x25 ^2
   - 18 x25 * x26 + 66 x25 * x27 + 52 x25 * x28 - 52 x25 * x29 + 21 x26 ^2
   - 98 x26 * x27 - 46 x26 * x28 - 14 x26 * x29 - 5 x27 ^2 - 6 x27 * x28
   + 78 x27 * x29 - 29 x28 ^2 - 16 x28 * x29 - 6 x29 ^2 ] / 2 
Subject To
Bounds
 x0 <= 1
 x1 <= 1
 x2 <= 1
 x3 <= 1
 x4 <= 1
 x5 <= 1
 x6 <= 1
 x7 <= 1
 x8 <= 1
 x9 <= 1
 x10 <= 1
 x11 <= 1
 x12 <= 1
 x13 <= 1
 x14 <= 1
 x15 <= 1
 x16 <= 1
 x17 <= 1
 x18 <= 1
 x19 <= 1
 x20 <= 1
 x21 <= 1
 x22 <= 1
 x23 <= 1
 x24 <= 1
 x25 <= 1
 x26 <= 1
 x27 <= 1
 x28 <= 1
 x29 <= 1
End
